Problem:    
Rows:       248
Columns:    89 (72 integer, 72 binary)
Non-zeros:  820
Status:     INTEGER OPTIMAL
Objective:  value = 17.168111 (MINimum)

   No.   Row name        Activity     Lower bound   Upper bound
------ ------------    ------------- ------------- -------------
     1 r.5                   2017.17             0               
     2 r.6                  -1996.26      -1998.88               
     3 r.7                   17.1681             0               
     4 r.8                  -1963.55      -1989.09               
     5 r.9                   2017.17             0               
     6 r.10                 -1994.95      -1998.69               
     7 r.11                  17.1681             0               
     8 r.12                  -1952.6      -1989.05               
     9 r.13                  2017.17             0               
    10 r.14                 -1989.66      -1998.12               
    11 r.15                  17.1681             0               
    12 r.16                 -1974.46      -1985.42               
    13 r.17                  2017.17             0               
    14 r.18                 -1994.04      -1999.09               
    15 r.19                  17.1681             0               
    16 r.20                  -3.0909      -1989.09               
    17 r.21                  2017.17             0               
    18 r.22                 -1992.16      -1998.67               
    19 r.23                  17.1681             0               
    20 r.24                   7.8418      -1989.07               
    21 r.25                  2017.17             0               
    22 r.26                 -1986.21      -1996.55               
    23 r.27                  17.1681             0               
    24 r.28                 -14.0038      -1996.37               
    25 r.29                  2017.17             0               
    26 r.30                 -1982.83      -1996.63               
    27 r.31                  17.1681             0               
    28 r.32                 -17.6382      -1995.14               
    29 r.33                  2017.17             0               
    30 r.34                 -1999.95      -1999.95               
    31 r.35                  17.1681             0               
    32 r.36                   0.0497      -1998.67               
    33 r.37                        1             1             = 
    34 r.38                        1             1             = 
    35 r.39                        1             1             = 
    36 r.40                        1             1             = 
    37 r.41                        1             1             = 
    38 r.42                        1             1             = 
    39 r.43                        1             1             = 
    40 r.44                        1             1             = 
    41 r.45                  1.30963       1.30963               
    42 r.46                 -1.30963      -1998.88               
    43 r.47                  10.9516       10.9516               
    44 r.48                 -10.9516      -1989.09               
    45 r.49                  6.60173        1.8839               
    46 r.50                 -6.60173      -1998.88               
    47 r.51                  1989.09       14.5783               
    48 r.52                 -1989.09      -1989.09               
    49 r.53                  2.21783        0.9082               
    50 r.54                 -2.21783      -1998.88               
    51 r.55                  1960.46       10.9129               
    52 r.56                 -1960.46      -1989.09               
    53 r.57                  4.10173       1.32992               
    54 r.58                 -4.10173      -1998.88               
    55 r.59                  1971.39       10.9327               
    56 r.60                 -1971.39      -1989.09               
    57 r.61                 -1989.95      -1994.05               
    58 r.62                 -17.7439      -1991.37               
    59 r.63                 -22.6557      -1994.05               
    60 r.64                  1949.55      -1991.37               
    61 r.65                   13.428       3.37411               
    62 r.66                  -13.428      -1998.88               
    63 r.67                  1945.91        4.8633               
    64 r.68                 -1945.91      -1989.09               
    65 r.69                 -1996.31      -1996.38               
    66 r.70                  -1963.6      -1984.09               
    67 r.71                 -1996.31      -1996.38               
    68 r.72                  -1963.6      -1984.09               
    69 r.73                  1998.69        1.1159               
    70 r.74                 -1998.69      -1998.69               
    71 r.75                  1989.05       10.9135               
    72 r.76                 -1989.05      -1989.05               
    73 r.77                   5.2921        1.8839               
    74 r.78                  -5.2921      -1998.69               
    75 r.79                  1978.13       14.5783               
    76 r.80                 -1978.13      -1989.05               
    77 r.81                   0.9082        0.9082               
    78 r.82                  -0.9082      -1998.69               
    79 r.83                  1949.51       10.9129               
    80 r.84                 -1949.51      -1989.05               
    81 r.85                   2.7921       1.32992               
    82 r.86                  -2.7921      -1998.69               
    83 r.87                  1960.44       10.9327               
    84 r.88                 -1960.44      -1989.05               
    85 r.89                   8.7443        3.4522               
    86 r.90                  -8.7443      -1998.69               
    87 r.91                  1938.59        3.6344               
    88 r.92                 -1938.59      -1989.05               
    89 r.93                 -1987.88      -1994.13               
    90 r.94                 -22.6879      -1990.14               
    91 r.95                 -30.2332      -1994.13               
    92 r.96                  1934.96      -1990.14               
    93 r.97                    -1995      -1996.19               
    94 r.98                 -1952.65      -1984.05               
    95 r.99                    -1995      -1996.19               
    96 r.100                -1952.65      -1984.05               
    97 r.101                  1993.4        1.1159               
    98 r.102                 -1993.4      -1998.12               
    99 r.103                 10.9135       10.9135               
   100 r.104                -10.9135      -1985.42               
   101 r.105                 1994.71       1.30963               
   102 r.106                -1994.71      -1998.12               
   103 r.107                 21.8651       10.9516               
   104 r.108                -21.8651      -1985.42               
   105 r.109                -1995.62      -1995.62               
   106 r.110                -1980.42      -1980.42               
   107 r.111                -1986.57      -1995.62               
   108 r.112                -1971.37      -1980.42               
   109 r.113                  1997.5       1.32992               
   110 r.114                 -1997.5      -1998.12               
   111 r.115                 1982.31       10.9327               
   112 r.116                -1982.31      -1985.42               
   113 r.117                  3.4522        3.4522               
   114 r.118                 -3.4522      -1998.12               
   115 r.119                 1960.46        3.6344               
   116 r.120                -1960.46      -1985.42               
   117 r.121                -1993.17      -1994.13               
   118 r.122                  -27.98      -1990.14               
   119 r.123                -8.36809      -1994.13               
   120 r.124                 1956.83      -1990.14               
   121 r.125                -1989.71      -1995.62               
   122 r.126                -1974.51      -1980.42               
   123 r.127                -1989.71      -1995.62               
   124 r.128                -1974.51      -1980.42               
   125 r.129                 1997.78        1.1159               
   126 r.130                -1997.78      -1999.09               
   127 r.131                 39.5406       10.9135               
   128 r.132                -39.5406      -1989.09               
   129 r.133                 1999.09       1.30963               
   130 r.134                -1999.09      -1999.09               
   131 r.135                 50.4922       10.9516               
   132 r.136                -50.4922      -1989.09               
   133 r.137                -1995.62      -1995.62               
   134 r.138                -1980.42      -1980.42               
   135 r.139                -1986.57      -1995.62               
   136 r.140                -1971.37      -1980.42               
   137 r.141                  1.8839       1.32992               
   138 r.142                 -1.8839      -1999.09               
   139 r.143                 10.9327       10.9327               
   140 r.144                -10.9327      -1989.09               
   141 r.145                  7.8361        3.4522               
   142 r.146                 -7.8361      -1999.09               
   143 r.147                 1989.09        3.6344               
   144 r.148                -1989.09      -1989.09               
   145 r.149                -1988.79      -1994.13               
   146 r.150                -23.5961      -1990.14               
   147 r.151                -1979.74      -1994.13               
   148 r.152                -14.5473      -1990.14               
   149 r.153                -1994.09      -1994.09               
   150 r.154                 -3.1406      -1979.09               
   151 r.155                -1994.09      -1994.09               
   152 r.156                 -3.1406      -1979.09               
   153 r.157                  1995.9        1.1159               
   154 r.158                 -1995.9      -1998.67               
   155 r.159                 28.6079       10.9135               
   156 r.160                -28.6079      -1989.07               
   157 r.161                 1997.21       1.30963               
   158 r.162                -1997.21      -1998.67               
   159 r.163                 39.5595       10.9516               
   160 r.164                -39.5595      -1989.07               
   161 r.165                     2.5        1.8839               
   162 r.166                    -2.5      -1998.67               
   163 r.167                 17.6944       14.5783               
   164 r.168                -17.6944      -1989.07               
   165 r.169                 1998.12        0.9082               
   166 r.170                -1998.12      -1998.67               
   167 r.171                 1989.07       10.9129               
   168 r.172                -1989.07      -1989.07               
   169 r.173                -1994.05      -1994.05               
   170 r.174                -21.8456      -1991.37               
   171 r.175                -1994.05      -1994.05               
   172 r.176                -21.8456      -1991.37               
   173 r.177                -1990.67      -1994.13               
   174 r.178                  -25.48      -1990.14               
   175 r.179                -1990.67      -1994.13               
   176 r.180                  -25.48      -1990.14               
   177 r.181                -1992.21      -1993.67               
   178 r.182                  7.7921      -1979.07               
   179 r.183                -1992.21      -1993.67               
   180 r.184                  7.7921      -1979.07               
   181 r.185                -1989.95      -1994.05               
   182 r.186                -17.7439      -1991.37               
   183 r.187                -22.6557      -1994.05               
   184 r.188                 1949.55      -1991.37               
   185 r.189                 1991.26       1.30963               
   186 r.190                -1991.26      -1996.55               
   187 r.191                 61.4051       10.9516               
   188 r.192                -61.4051      -1996.37               
   189 r.193                 1996.55        1.8839               
   190 r.194                -1996.55      -1996.55               
   191 r.195                   39.54       14.5783               
   192 r.196                  -39.54      -1996.37               
   193 r.197                 1992.16        0.9082               
   194 r.198                -1992.16      -1996.55               
   195 r.199                 10.9129       10.9129               
   196 r.200                -10.9129      -1996.37               
   197 r.201                -1994.05      -1994.05               
   198 r.202                -21.8456      -1991.37               
   199 r.203                -1994.05      -1994.05               
   200 r.204                -21.8456      -1991.37               
   201 r.205                 3.37411       3.37411               
   202 r.206                -3.37411      -1996.55               
   203 r.207                 1996.37        4.8633               
   204 r.208                -1996.37      -1996.37               
   205 r.209                 1986.57        1.1159               
   206 r.210                -1986.57      -1996.63               
   207 r.211                 54.0879       10.9135               
   208 r.212                -54.0879      -1995.14               
   209 r.213                -1987.88      -1994.13               
   210 r.214                -22.6879      -1990.14               
   211 r.215                -30.2332      -1994.13               
   212 r.216                 1934.96      -1990.14               
   213 r.217                -1993.17      -1994.13               
   214 r.218                  -27.98      -1990.14               
   215 r.219                -8.36809      -1994.13               
   216 r.220                 1956.83      -1990.14               
   217 r.221                -1988.79      -1994.13               
   218 r.222                -23.5961      -1990.14               
   219 r.223                -1979.74      -1994.13               
   220 r.224                -14.5473      -1990.14               
   221 r.225                -1990.67      -1994.13               
   222 r.226                  -25.48      -1990.14               
   223 r.227                -1990.67      -1994.13               
   224 r.228                  -25.48      -1990.14               
   225 r.229                 1996.63        3.4522               
   226 r.230                -1996.63      -1996.63               
   227 r.231                  3.6344        3.6344               
   228 r.232                 -3.6344      -1995.14               
   229 r.233                -1996.31      -1996.38               
   230 r.234                 -1963.6      -1984.09               
   231 r.235                -1996.31      -1996.38               
   232 r.236                 -1963.6      -1984.09               
   233 r.237                   -1995      -1996.19               
   234 r.238                -1952.65      -1984.05               
   235 r.239                   -1995      -1996.19               
   236 r.240                -1952.65      -1984.05               
   237 r.241                -1989.71      -1995.62               
   238 r.242                -1974.51      -1980.42               
   239 r.243                -1989.71      -1995.62               
   240 r.244                -1974.51      -1980.42               
   241 r.245                -1994.09      -1994.09               
   242 r.246                 -3.1406      -1979.09               
   243 r.247                -1994.09      -1994.09               
   244 r.248                 -3.1406      -1979.09               
   245 r.249                -1992.21      -1993.67               
   246 r.250                  7.7921      -1979.07               
   247 r.251                -1992.21      -1993.67               
   248 r.252                  7.7921      -1979.07               

   No. Column name       Activity     Lower bound   Upper bound
------ ------------    ------------- ------------- -------------
     1 tt                    17.1681             0               
     2 s_1_1        *              1             0             1 
     3 t_1_1                  13.428             0               
     4 s_1_6        *              1             0             1 
     5 s_2_1        *              0             0             1 
     6 t_2_1                 1980.72             0               
     7 s_2_6        *              0             0             1 
     8 s_1_2        *              1             0             1 
     9 t_1_2                 12.1184             0               
    10 s_1_7        *              1             0             1 
    11 s_2_2        *              0             0             1 
    12 t_2_2                 1969.77             0               
    13 s_2_7        *              0             0             1 
    14 s_1_3        *              1             0             1 
    15 t_1_3                 6.82631             0               
    16 s_2_3        *              0             0             1 
    17 t_2_3                 1991.63             0               
    18 s_1_4        *              1             0             1 
    19 t_1_4                 11.2102             0               
    20 s_2_4        *              0             0             1 
    21 t_2_4                  20.259             0               
    22 s_1_5        *              1             0             1 
    23 t_1_5                 9.32631             0               
    24 s_2_5        *              0             0             1 
    25 t_2_5                 9.32631             0               
    26 t_1_6                 3.37411             0               
    27 t_2_6                 31.1719             0               
    28 t_1_7                       0             0               
    29 t_2_7                 34.8063             0               
    30 s_1_8        *              1             0             1 
    31 t_1_8                 17.1184             0               
    32 s_2_8        *              0             0             1 
    33 t_2_8                 17.1184             0               
    34 u_1_1_2      *              0             0             1 
    35 u_2_1_2      *              0             0             1 
    36 u_1_1_3      *              0             0             1 
    37 u_2_1_3      *              1             0             1 
    38 u_1_1_4      *              0             0             1 
    39 u_2_1_4      *              0             0             1 
    40 u_1_1_5      *              0             0             1 
    41 u_2_1_5      *              0             0             1 
    42 u_1_1_7      *              0             0             1 
    43 u_2_1_7      *              0             0             1 
    44 u_1_2_1      *              1             0             1 
    45 u_2_2_1      *              1             0             1 
    46 u_1_2_3      *              0             0             1 
    47 u_2_2_3      *              1             0             1 
    48 u_1_2_4      *              0             0             1 
    49 u_2_2_4      *              0             0             1 
    50 u_1_2_5      *              0             0             1 
    51 u_2_2_5      *              0             0             1 
    52 u_1_2_6      *              0             0             1 
    53 u_2_2_6      *              0             0             1 
    54 u_1_3_1      *              1             0             1 
    55 u_2_3_1      *              0             0             1 
    56 u_1_3_2      *              1             0             1 
    57 u_2_3_2      *              0             0             1 
    58 u_1_3_5      *              1             0             1 
    59 u_2_3_5      *              0             0             1 
    60 u_1_3_6      *              0             0             1 
    61 u_2_3_6      *              0             0             1 
    62 u_1_4_1      *              1             0             1 
    63 u_2_4_1      *              1             0             1 
    64 u_1_4_2      *              1             0             1 
    65 u_2_4_2      *              1             0             1 
    66 u_1_4_5      *              0             0             1 
    67 u_2_4_5      *              0             0             1 
    68 u_1_4_6      *              0             0             1 
    69 u_2_4_6      *              1             0             1 
    70 u_1_5_1      *              1             0             1 
    71 u_2_5_1      *              1             0             1 
    72 u_1_5_2      *              1             0             1 
    73 u_2_5_2      *              1             0             1 
    74 u_1_5_3      *              0             0             1 
    75 u_2_5_3      *              1             0             1 
    76 u_1_5_4      *              1             0             1 
    77 u_2_5_4      *              1             0             1 
    78 u_1_6_2      *              1             0             1 
    79 u_2_6_2      *              1             0             1 
    80 u_1_6_3      *              1             0             1 
    81 u_2_6_3      *              1             0             1 
    82 u_1_6_4      *              1             0             1 
    83 u_2_6_4      *              0             0             1 
    84 u_1_6_7      *              0             0             1 
    85 u_2_6_7      *              1             0             1 
    86 u_1_7_1      *              1             0             1 
    87 u_2_7_1      *              1             0             1 
    88 u_1_7_6      *              1             0             1 
    89 u_2_7_6      *              0             0             1 

Integer feasibility conditions:

KKT.PE: max.abs.err = 0.00e+00 on row 0
        max.rel.err = 0.00e+00 on row 0
        High quality

KKT.PB: max.abs.err = 5.20e-14 on row 113
        max.rel.err = 1.17e-14 on row 113
        High quality

End of output
